p cnf 115 378
3 1 0
3 2 0
-1 -2 -3 0
6 4 0
6 -5 0
-4 5 -6 0
7 6 0
7 -2 0
-6 2 -7 0
8 3 0
8 -7 0
-3 7 -8 0
10 9 0
10 -4 0
-9 4 -10 0
11 -10 0
11 -1 0
10 1 -11 0
13 -11 0
13 12 0
11 -12 -13 0
-14 13 0
-14 10 0
-13 -10 14 0
15 10 0
15 -6 0
-10 6 -15 0
-7 -15 -16 0
7 15 -16 0
-7 15 16 0
7 -15 16 0
17 14 0
17 -16 0
-14 16 -17 0
-17 18 -19 0
17 -18 -19 0
-17 -18 19 0
17 18 19 0
-8 -19 -20 0
8 19 -20 0
-8 19 20 0
8 -19 20 0
22 -21 0
22 -10 0
21 10 -22 0
-23 -2 -24 0
23 2 -24 0
-23 2 24 0
23 -2 24 0
-26 24 0
-26 25 0
-24 -25 26 0
-27 22 0
-27 26 0
-22 -26 27 0
-28 25 -29 0
28 -25 -29 0
-28 -25 29 0
28 25 29 0
18 29 -30 0
-18 -29 -30 0
18 -29 30 0
-18 29 30 0
-32 31 0
-32 -31 0
-21 -32 -33 0
21 32 -33 0
-21 32 33 0
21 -32 33 0
30 -33 -34 0
-30 33 -34 0
30 33 34 0
-30 -33 34 0
-36 4 0
-36 -4 0
-37 -12 0
-37 36 0
12 -36 37 0
-39 -37 0
-39 -38 0
37 38 39 0
40 -37 0
40 10 0
37 -10 -40 0
-41 31 0
-41 40 0
-31 -40 41 0
-42 39 0
-42 -41 0
-39 41 42 0
43 35 0
43 42 0
-35 -42 -43 0
-34 -43 -44 0
34 43 -44 0
-34 43 44 0
34 -43 44 0
1 45 -46 0
-1 -45 -46 0
1 -45 46 0
-1 45 46 0
-47 -11 0
-47 -46 0
11 46 47 0
-41 47 -48 0
41 -47 -48 0
-41 -47 48 0
41 47 48 0
-22 21 -49 0
22 -21 -49 0
-22 -21 49 0
22 21 49 0
-49 -47 -50 0
49 47 -50 0
-49 47 50 0
49 -47 50 0
-51 -48 0
-51 50 0
48 -50 51 0
52 44 0
52 -51 0
-44 51 -52 0
53 -31 0
53 -12 0
31 12 -53 0
-54 -31 -55 0
54 31 -55 0
-54 31 55 0
54 -31 55 0
-56 55 0
-56 15 0
-55 -15 56 0
-57 -2 0
-57 -56 0
2 56 57 0
58 -53 0
58 -57 0
53 57 -58 0
-59 -28 0
-59 56 0
28 -56 59 0
46 -59 -60 0
-46 59 -60 0
46 59 60 0
-46 -59 60 0
-61 58 0
-61 60 0
-58 -60 61 0
52 -61 -62 0
-52 61 -62 0
52 61 62 0
-52 -61 62 0
-36 37 -63 0
36 -37 -63 0
-36 -37 63 0
36 37 63 0
-64 -12 0
-64 63 0
12 -63 64 0
-65 5 0
-65 -36 0
-5 36 65 0
-64 -65 -66 0
64 65 -66 0
-64 65 66 0
64 -65 66 0
-67 -25 0
-67 -36 0
25 36 67 0
64 -26 -68 0
-64 26 -68 0
64 26 68 0
-64 -26 68 0
69 -53 0
69 -68 0
53 68 -69 0
67 69 -70 0
-67 -69 -70 0
67 -69 70 0
-67 69 70 0
-49 6 -71 0
49 -6 -71 0
-49 -6 71 0
49 6 71 0
-70 71 -72 0
70 -71 -72 0
-70 -71 72 0
70 71 72 0
-66 -72 -73 0
66 72 -73 0
-66 72 73 0
66 -72 73 0
-74 62 0
-74 73 0
-62 -73 74 0
17 2 -75 0
-17 -2 -75 0
17 -2 75 0
-17 2 75 0
13 4 -76 0
-13 -4 -76 0
13 -4 76 0
-13 4 76 0
77 -18 0
77 -28 0
18 28 -77 0
78 -54 0
78 -22 0
54 22 -78 0
57 78 -79 0
-57 -78 -79 0
57 -78 79 0
-57 78 79 0
80 -77 0
80 -79 0
77 79 -80 0
-81 -76 0
-81 -80 0
76 80 81 0
-82 -75 0
-82 81 0
75 -81 82 0
-83 11 0
-83 -54 0
-11 54 83 0
46 84 0
-46 84 0
3 84 -85 0
-3 -84 -85 0
3 -84 85 0
-3 84 85 0
86 83 0
86 -85 0
-83 85 -86 0
87 82 0
87 86 0
-82 -86 -87 0
88 -74 0
88 87 0
74 -87 -88 0
-9 -16 -89 0
9 16 -89 0
-9 16 89 0
9 -16 89 0
90 -11 0
90 -25 0
11 25 -90 0
91 36 0
91 78 0
-36 -78 -91 0
92 -91 0
92 -91 0
91 -92 0
-93 92 0
-93 -37 0
-92 37 93 0
94 37 0
94 -57 0
-37 57 -94 0
95 -93 0
95 94 0
93 -94 -95 0
-96 -12 0
-96 25 0
12 -25 96 0
97 96 0
97 11 0
-96 -11 -97 0
98 -95 0
98 97 0
95 -97 -98 0
90 98 -99 0
-90 -98 -99 0
90 -98 99 0
-90 98 99 0
-100 89 0
-100 99 0
-89 -99 100 0
-101 55 0
-101 -26 0
-55 26 101 0
-102 -42 0
-102 -101 0
42 101 102 0
-103 -9 0
-103 2 0
9 -2 103 0
-104 103 0
-104 63 0
-103 -63 104 0
-105 -102 0
-105 -104 0
102 104 105 0
-6 -40 -106 0
6 40 -106 0
-6 40 106 0
6 -40 106 0
-106 -2 -107 0
106 2 -107 0
-106 2 107 0
106 -2 107 0
108 54 0
108 107 0
-54 -107 -108 0
109 105 0
109 -108 0
-105 108 -109 0
-110 -100 0
-110 -109 0
100 109 110 0
-88 -110 -111 0
88 110 -111 0
-88 110 111 0
88 -110 111 0
112 7 0
112 -24 0
-7 24 -112 0
113 111 0
113 -112 0
-111 112 -113 0
-27 -113 -114 0
27 113 -114 0
-27 113 114 0
27 -113 114 0
20 -114 -115 0
-20 114 -115 0
20 114 115 0
-20 -114 115 0
-45 36 0
10 77 103 0
29 51 0
-42 -103 -102 -7 -36 0
-93 70 -24 90 23 64 0
50 9 106 0
42 50 31 88 109 -25 0
-14 -44 115 49 0
-64 33 103 -65 0
-106 -107 22 38 -50 0
41 1 0
-100 109 -33 0
-107 40 -25 0
35 -113 67 -92 77 4 0
98 -24 38 -74 -42 0
18 -25 94 98 -11 10 0
84 -33 0
73 8 0
37 -67 -43 80 38 -28 0
-65 112 18 38 0
-40 -11 27 -54 35 0
-106 -115 -96 -101 65 22 0
55 -58 35 39 79 -60 0
78 -30 -60 104 2 -94 0
-93 39 -82 0
110 -46 -69 -113 0
22 -12 0
-62 -108 -1 83 -46 0
-102 -111 0
-111 51 -21 83 61 0
-55 11 0
-111 57 50 -33 0
83 55 -82 0
45 -63 87 0
34 -4 69 0
69 28 75 -48 108 0
111 47 -105 -24 0
36 60 -76 0
-75 99 107 0
7 -75 0
-100 -32 -16 64 0
31 57 -80 91 67 -35 0
15 -73 68 22 -20 97 0
-37 4 -91 0
-111 -72 78 45 -86 70 0
67 83 88 26 42 -87 0
33 114 84 0
115 -102 -20 38 0
-63 96 0
115 0
